p cnf 368 2816
-1 -161 0
-1 -162 0
161 -161 0
162 -162 0
-21 -169 0
-21 -170 0
169 -169 0
170 -170 0
-41 -177 0
-41 -178 0
177 -177 0
178 -178 0
-61 -185 0
-61 -186 0
185 -185 0
186 -186 0
-81 -193 0
-81 -194 0
193 -193 0
194 -194 0
-101 -201 0
-101 -202 0
201 -201 0
202 -202 0
-121 -209 0
-121 -210 0
209 -209 0
210 -210 0
-141 -217 0
-141 -218 0
217 -217 0
218 -218 0
2 -161 0
2 -162 0
161 -161 0
162 -162 0
22 -169 0
22 -170 0
169 -169 0
170 -170 0
42 -177 0
42 -178 0
177 -177 0
178 -178 0
62 -185 0
62 -186 0
185 -185 0
186 -186 0
82 -193 0
82 -194 0
193 -193 0
194 -194 0
102 -201 0
102 -202 0
201 -201 0
202 -202 0
122 -209 0
122 -210 0
209 -209 0
210 -210 0
142 -217 0
142 -218 0
217 -217 0
218 -218 0
3 -161 0
3 -162 0
161 -161 0
162 -162 0
23 -169 0
23 -170 0
169 -169 0
170 -170 0
43 -177 0
43 -178 0
177 -177 0
178 -178 0
63 -185 0
63 -186 0
185 -185 0
186 -186 0
83 -193 0
83 -194 0
193 -193 0
194 -194 0
103 -201 0
103 -202 0
201 -201 0
202 -202 0
123 -209 0
123 -210 0
209 -209 0
210 -210 0
143 -217 0
143 -218 0
217 -217 0
218 -218 0
4 -161 0
4 -162 0
161 -161 0
162 -162 0
24 -169 0
24 -170 0
169 -169 0
170 -170 0
44 -177 0
44 -178 0
177 -177 0
178 -178 0
64 -185 0
64 -186 0
185 -185 0
186 -186 0
84 -193 0
84 -194 0
193 -193 0
194 -194 0
104 -201 0
104 -202 0
201 -201 0
202 -202 0
124 -209 0
124 -210 0
209 -209 0
210 -210 0
144 -217 0
144 -218 0
217 -217 0
218 -218 0
-5 -161 0
-5 -162 0
161 -161 0
162 -162 0
-25 -169 0
-25 -170 0
169 -169 0
170 -170 0
-45 -177 0
-45 -178 0
177 -177 0
178 -178 0
-65 -185 0
-65 -186 0
185 -185 0
186 -186 0
-85 -193 0
-85 -194 0
193 -193 0
194 -194 0
-105 -201 0
-105 -202 0
201 -201 0
202 -202 0
-125 -209 0
-125 -210 0
209 -209 0
210 -210 0
-145 -217 0
-145 -218 0
217 -217 0
218 -218 0
6 -161 0
6 -162 0
161 -161 0
162 -162 0
26 -169 0
26 -170 0
169 -169 0
170 -170 0
46 -177 0
46 -178 0
177 -177 0
178 -178 0
66 -185 0
66 -186 0
185 -185 0
186 -186 0
86 -193 0
86 -194 0
193 -193 0
194 -194 0
106 -201 0
106 -202 0
201 -201 0
202 -202 0
126 -209 0
126 -210 0
209 -209 0
210 -210 0
146 -217 0
146 -218 0
217 -217 0
218 -218 0
7 -225 -161 0
-7 225 -161 0
7 225 -162 0
-7 -225 -162 0
27 -225 -169 0
-27 225 -169 0
27 225 -170 0
-27 -225 -170 0
47 -225 -177 0
-47 225 -177 0
47 225 -178 0
-47 -225 -178 0
67 -225 -185 0
-67 225 -185 0
67 225 -186 0
-67 -225 -186 0
87 -225 -193 0
-87 225 -193 0
87 225 -194 0
-87 -225 -194 0
107 -225 -201 0
-107 225 -201 0
107 225 -202 0
-107 -225 -202 0
127 -225 -209 0
-127 225 -209 0
127 225 -210 0
-127 -225 -210 0
147 -225 -217 0
-147 225 -217 0
147 225 -218 0
-147 -225 -218 0
8 -226 -161 0
-8 226 -161 0
8 226 -162 0
-8 -226 -162 0
28 -226 -169 0
-28 226 -169 0
28 226 -170 0
-28 -226 -170 0
48 -226 -177 0
-48 226 -177 0
48 226 -178 0
-48 -226 -178 0
68 -226 -185 0
-68 226 -185 0
68 226 -186 0
-68 -226 -186 0
88 -226 -193 0
-88 226 -193 0
88 226 -194 0
-88 -226 -194 0
108 -226 -201 0
-108 226 -201 0
108 226 -202 0
-108 -226 -202 0
128 -226 -209 0
-128 226 -209 0
128 226 -210 0
-128 -226 -210 0
148 -226 -217 0
-148 226 -217 0
148 226 -218 0
-148 -226 -218 0
9 -161 0
9 -162 0
161 -161 0
162 -162 0
29 -169 0
29 -170 0
169 -169 0
170 -170 0
49 -177 0
49 -178 0
177 -177 0
178 -178 0
69 -185 0
69 -186 0
185 -185 0
186 -186 0
89 -193 0
89 -194 0
193 -193 0
194 -194 0
109 -201 0
109 -202 0
201 -201 0
202 -202 0
129 -209 0
129 -210 0
209 -209 0
210 -210 0
149 -217 0
149 -218 0
217 -217 0
218 -218 0
10 -161 0
10 -162 0
161 -161 0
162 -162 0
30 -169 0
30 -170 0
169 -169 0
170 -170 0
50 -177 0
50 -178 0
177 -177 0
178 -178 0
70 -185 0
70 -186 0
185 -185 0
186 -186 0
90 -193 0
90 -194 0
193 -193 0
194 -194 0
110 -201 0
110 -202 0
201 -201 0
202 -202 0
130 -209 0
130 -210 0
209 -209 0
210 -210 0
150 -217 0
150 -218 0
217 -217 0
218 -218 0
11 -227 -161 0
-11 227 -161 0
11 227 -162 0
-11 -227 -162 0
31 -227 -169 0
-31 227 -169 0
31 227 -170 0
-31 -227 -170 0
51 -227 -177 0
-51 227 -177 0
51 227 -178 0
-51 -227 -178 0
71 -227 -185 0
-71 227 -185 0
71 227 -186 0
-71 -227 -186 0
91 -227 -193 0
-91 227 -193 0
91 227 -194 0
-91 -227 -194 0
111 -227 -201 0
-111 227 -201 0
111 227 -202 0
-111 -227 -202 0
131 -227 -209 0
-131 227 -209 0
131 227 -210 0
-131 -227 -210 0
151 -227 -217 0
-151 227 -217 0
151 227 -218 0
-151 -227 -218 0
12 -161 0
12 -162 0
161 -161 0
162 -162 0
32 -169 0
32 -170 0
169 -169 0
170 -170 0
52 -177 0
52 -178 0
177 -177 0
178 -178 0
72 -185 0
72 -186 0
185 -185 0
186 -186 0
92 -193 0
92 -194 0
193 -193 0
194 -194 0
112 -201 0
112 -202 0
201 -201 0
202 -202 0
132 -209 0
132 -210 0
209 -209 0
210 -210 0
152 -217 0
152 -218 0
217 -217 0
218 -218 0
13 -228 -161 0
-13 228 -161 0
13 228 -162 0
-13 -228 -162 0
33 -228 -169 0
-33 228 -169 0
33 228 -170 0
-33 -228 -170 0
53 -228 -177 0
-53 228 -177 0
53 228 -178 0
-53 -228 -178 0
73 -228 -185 0
-73 228 -185 0
73 228 -186 0
-73 -228 -186 0
93 -228 -193 0
-93 228 -193 0
93 228 -194 0
-93 -228 -194 0
113 -228 -201 0
-113 228 -201 0
113 228 -202 0
-113 -228 -202 0
133 -228 -209 0
-133 228 -209 0
133 228 -210 0
-133 -228 -210 0
153 -228 -217 0
-153 228 -217 0
153 228 -218 0
-153 -228 -218 0
14 -161 0
14 -162 0
161 -161 0
162 -162 0
34 -169 0
34 -170 0
169 -169 0
170 -170 0
54 -177 0
54 -178 0
177 -177 0
178 -178 0
74 -185 0
74 -186 0
185 -185 0
186 -186 0
94 -193 0
94 -194 0
193 -193 0
194 -194 0
114 -201 0
114 -202 0
201 -201 0
202 -202 0
134 -209 0
134 -210 0
209 -209 0
210 -210 0
154 -217 0
154 -218 0
217 -217 0
218 -218 0
15 -229 -161 0
-15 229 -161 0
15 229 -162 0
-15 -229 -162 0
35 -229 -169 0
-35 229 -169 0
35 229 -170 0
-35 -229 -170 0
55 -229 -177 0
-55 229 -177 0
55 229 -178 0
-55 -229 -178 0
75 -229 -185 0
-75 229 -185 0
75 229 -186 0
-75 -229 -186 0
95 -229 -193 0
-95 229 -193 0
95 229 -194 0
-95 -229 -194 0
115 -229 -201 0
-115 229 -201 0
115 229 -202 0
-115 -229 -202 0
135 -229 -209 0
-135 229 -209 0
135 229 -210 0
-135 -229 -210 0
155 -229 -217 0
-155 229 -217 0
155 229 -218 0
-155 -229 -218 0
16 -161 0
16 -162 0
161 -161 0
162 -162 0
36 -169 0
36 -170 0
169 -169 0
170 -170 0
56 -177 0
56 -178 0
177 -177 0
178 -178 0
76 -185 0
76 -186 0
185 -185 0
186 -186 0
96 -193 0
96 -194 0
193 -193 0
194 -194 0
116 -201 0
116 -202 0
201 -201 0
202 -202 0
136 -209 0
136 -210 0
209 -209 0
210 -210 0
156 -217 0
156 -218 0
217 -217 0
218 -218 0
17 -161 0
17 -162 0
161 -161 0
162 -162 0
37 -169 0
37 -170 0
169 -169 0
170 -170 0
57 -177 0
57 -178 0
177 -177 0
178 -178 0
77 -185 0
77 -186 0
185 -185 0
186 -186 0
97 -193 0
97 -194 0
193 -193 0
194 -194 0
117 -201 0
117 -202 0
201 -201 0
202 -202 0
137 -209 0
137 -210 0
209 -209 0
210 -210 0
157 -217 0
157 -218 0
217 -217 0
218 -218 0
-18 -161 0
-18 -162 0
161 -161 0
162 -162 0
-38 -169 0
-38 -170 0
169 -169 0
170 -170 0
-58 -177 0
-58 -178 0
177 -177 0
178 -178 0
-78 -185 0
-78 -186 0
185 -185 0
186 -186 0
-98 -193 0
-98 -194 0
193 -193 0
194 -194 0
-118 -201 0
-118 -202 0
201 -201 0
202 -202 0
-138 -209 0
-138 -210 0
209 -209 0
210 -210 0
-158 -217 0
-158 -218 0
217 -217 0
218 -218 0
19 -230 -161 0
-19 230 -161 0
19 230 -162 0
-19 -230 -162 0
39 -230 -169 0
-39 230 -169 0
39 230 -170 0
-39 -230 -170 0
59 -230 -177 0
-59 230 -177 0
59 230 -178 0
-59 -230 -178 0
79 -230 -185 0
-79 230 -185 0
79 230 -186 0
-79 -230 -186 0
99 -230 -193 0
-99 230 -193 0
99 230 -194 0
-99 -230 -194 0
119 -230 -201 0
-119 230 -201 0
119 230 -202 0
-119 -230 -202 0
139 -230 -209 0
-139 230 -209 0
139 230 -210 0
-139 -230 -210 0
159 -230 -217 0
-159 230 -217 0
159 230 -218 0
-159 -230 -218 0
20 -161 0
20 -162 0
161 -161 0
162 -162 0
40 -169 0
40 -170 0
169 -169 0
170 -170 0
60 -177 0
60 -178 0
177 -177 0
178 -178 0
80 -185 0
80 -186 0
185 -185 0
186 -186 0
100 -193 0
100 -194 0
193 -193 0
194 -194 0
120 -201 0
120 -202 0
201 -201 0
202 -202 0
140 -209 0
140 -210 0
209 -209 0
210 -210 0
160 -217 0
160 -218 0
217 -217 0
218 -218 0
-305 161 0
305 -161 0
-306 162 0
305 -162 0
-305 -161 0
-306 -162 0
-313 161 305 0
313 -161 0
313 -305 0
-314 162 306 0
314 -162 0
314 -306 0
-313 -169 0
-314 -170 0
-321 169 313 0
321 -169 0
321 -313 0
-322 170 314 0
322 -170 0
322 -314 0
-321 -177 0
-322 -178 0
-329 177 321 0
329 -177 0
329 -321 0
-330 178 322 0
330 -178 0
330 -322 0
-329 -185 0
-330 -186 0
-337 185 329 0
337 -185 0
337 -329 0
-338 186 330 0
338 -186 0
338 -330 0
-337 -193 0
-338 -194 0
-345 193 337 0
345 -193 0
345 -337 0
-346 194 338 0
346 -194 0
346 -338 0
-345 -201 0
-346 -202 0
-353 201 345 0
353 -201 0
353 -345 0
-354 202 346 0
354 -202 0
354 -346 0
-353 -209 0
-354 -210 0
-361 209 353 0
361 -209 0
361 -353 0
-362 210 354 0
362 -210 0
362 -354 0
-361 -217 0
-362 -218 0
361 0
362 0
-1 -163 0
-1 -164 0
163 -163 0
164 -164 0
-21 -171 0
-21 -172 0
171 -171 0
172 -172 0
-41 -179 0
-41 -180 0
179 -179 0
180 -180 0
-61 -187 0
-61 -188 0
187 -187 0
188 -188 0
-81 -195 0
-81 -196 0
195 -195 0
196 -196 0
-101 -203 0
-101 -204 0
203 -203 0
204 -204 0
-121 -211 0
-121 -212 0
211 -211 0
212 -212 0
-141 -219 0
-141 -220 0
219 -219 0
220 -220 0
2 -163 0
2 -164 0
163 -163 0
164 -164 0
22 -171 0
22 -172 0
171 -171 0
172 -172 0
42 -179 0
42 -180 0
179 -179 0
180 -180 0
62 -187 0
62 -188 0
187 -187 0
188 -188 0
82 -195 0
82 -196 0
195 -195 0
196 -196 0
102 -203 0
102 -204 0
203 -203 0
204 -204 0
122 -211 0
122 -212 0
211 -211 0
212 -212 0
142 -219 0
142 -220 0
219 -219 0
220 -220 0
3 -163 0
3 -164 0
163 -163 0
164 -164 0
23 -171 0
23 -172 0
171 -171 0
172 -172 0
43 -179 0
43 -180 0
179 -179 0
180 -180 0
63 -187 0
63 -188 0
187 -187 0
188 -188 0
83 -195 0
83 -196 0
195 -195 0
196 -196 0
103 -203 0
103 -204 0
203 -203 0
204 -204 0
123 -211 0
123 -212 0
211 -211 0
212 -212 0
143 -219 0
143 -220 0
219 -219 0
220 -220 0
4 -163 0
4 -164 0
163 -163 0
164 -164 0
24 -171 0
24 -172 0
171 -171 0
172 -172 0
44 -179 0
44 -180 0
179 -179 0
180 -180 0
64 -187 0
64 -188 0
187 -187 0
188 -188 0
84 -195 0
84 -196 0
195 -195 0
196 -196 0
104 -203 0
104 -204 0
203 -203 0
204 -204 0
124 -211 0
124 -212 0
211 -211 0
212 -212 0
144 -219 0
144 -220 0
219 -219 0
220 -220 0
5 -231 -163 0
-5 231 -163 0
5 231 -164 0
-5 -231 -164 0
25 -231 -171 0
-25 231 -171 0
25 231 -172 0
-25 -231 -172 0
45 -231 -179 0
-45 231 -179 0
45 231 -180 0
-45 -231 -180 0
65 -231 -187 0
-65 231 -187 0
65 231 -188 0
-65 -231 -188 0
85 -231 -195 0
-85 231 -195 0
85 231 -196 0
-85 -231 -196 0
105 -231 -203 0
-105 231 -203 0
105 231 -204 0
-105 -231 -204 0
125 -231 -211 0
-125 231 -211 0
125 231 -212 0
-125 -231 -212 0
145 -231 -219 0
-145 231 -219 0
145 231 -220 0
-145 -231 -220 0
6 -163 0
6 -164 0
163 -163 0
164 -164 0
26 -171 0
26 -172 0
171 -171 0
172 -172 0
46 -179 0
46 -180 0
179 -179 0
180 -180 0
66 -187 0
66 -188 0
187 -187 0
188 -188 0
86 -195 0
86 -196 0
195 -195 0
196 -196 0
106 -203 0
106 -204 0
203 -203 0
204 -204 0
126 -211 0
126 -212 0
211 -211 0
212 -212 0
146 -219 0
146 -220 0
219 -219 0
220 -220 0
7 -232 -163 0
-7 232 -163 0
7 232 -164 0
-7 -232 -164 0
27 -232 -171 0
-27 232 -171 0
27 232 -172 0
-27 -232 -172 0
47 -232 -179 0
-47 232 -179 0
47 232 -180 0
-47 -232 -180 0
67 -232 -187 0
-67 232 -187 0
67 232 -188 0
-67 -232 -188 0
87 -232 -195 0
-87 232 -195 0
87 232 -196 0
-87 -232 -196 0
107 -232 -203 0
-107 232 -203 0
107 232 -204 0
-107 -232 -204 0
127 -232 -211 0
-127 232 -211 0
127 232 -212 0
-127 -232 -212 0
147 -232 -219 0
-147 232 -219 0
147 232 -220 0
-147 -232 -220 0
8 -233 -163 0
-8 233 -163 0
8 233 -164 0
-8 -233 -164 0
28 -233 -171 0
-28 233 -171 0
28 233 -172 0
-28 -233 -172 0
48 -233 -179 0
-48 233 -179 0
48 233 -180 0
-48 -233 -180 0
68 -233 -187 0
-68 233 -187 0
68 233 -188 0
-68 -233 -188 0
88 -233 -195 0
-88 233 -195 0
88 233 -196 0
-88 -233 -196 0
108 -233 -203 0
-108 233 -203 0
108 233 -204 0
-108 -233 -204 0
128 -233 -211 0
-128 233 -211 0
128 233 -212 0
-128 -233 -212 0
148 -233 -219 0
-148 233 -219 0
148 233 -220 0
-148 -233 -220 0
9 -234 -163 0
-9 234 -163 0
9 234 -164 0
-9 -234 -164 0
29 -234 -171 0
-29 234 -171 0
29 234 -172 0
-29 -234 -172 0
49 -234 -179 0
-49 234 -179 0
49 234 -180 0
-49 -234 -180 0
69 -234 -187 0
-69 234 -187 0
69 234 -188 0
-69 -234 -188 0
89 -234 -195 0
-89 234 -195 0
89 234 -196 0
-89 -234 -196 0
109 -234 -203 0
-109 234 -203 0
109 234 -204 0
-109 -234 -204 0
129 -234 -211 0
-129 234 -211 0
129 234 -212 0
-129 -234 -212 0
149 -234 -219 0
-149 234 -219 0
149 234 -220 0
-149 -234 -220 0
10 -163 0
10 -164 0
163 -163 0
164 -164 0
30 -171 0
30 -172 0
171 -171 0
172 -172 0
50 -179 0
50 -180 0
179 -179 0
180 -180 0
70 -187 0
70 -188 0
187 -187 0
188 -188 0
90 -195 0
90 -196 0
195 -195 0
196 -196 0
110 -203 0
110 -204 0
203 -203 0
204 -204 0
130 -211 0
130 -212 0
211 -211 0
212 -212 0
150 -219 0
150 -220 0
219 -219 0
220 -220 0
11 -163 0
11 -164 0
163 -163 0
164 -164 0
31 -171 0
31 -172 0
171 -171 0
172 -172 0
51 -179 0
51 -180 0
179 -179 0
180 -180 0
71 -187 0
71 -188 0
187 -187 0
188 -188 0
91 -195 0
91 -196 0
195 -195 0
196 -196 0
111 -203 0
111 -204 0
203 -203 0
204 -204 0
131 -211 0
131 -212 0
211 -211 0
212 -212 0
151 -219 0
151 -220 0
219 -219 0
220 -220 0
12 -163 0
12 -164 0
163 -163 0
164 -164 0
32 -171 0
32 -172 0
171 -171 0
172 -172 0
52 -179 0
52 -180 0
179 -179 0
180 -180 0
72 -187 0
72 -188 0
187 -187 0
188 -188 0
92 -195 0
92 -196 0
195 -195 0
196 -196 0
112 -203 0
112 -204 0
203 -203 0
204 -204 0
132 -211 0
132 -212 0
211 -211 0
212 -212 0
152 -219 0
152 -220 0
219 -219 0
220 -220 0
13 -235 -163 0
-13 235 -163 0
13 235 -164 0
-13 -235 -164 0
33 -235 -171 0
-33 235 -171 0
33 235 -172 0
-33 -235 -172 0
53 -235 -179 0
-53 235 -179 0
53 235 -180 0
-53 -235 -180 0
73 -235 -187 0
-73 235 -187 0
73 235 -188 0
-73 -235 -188 0
93 -235 -195 0
-93 235 -195 0
93 235 -196 0
-93 -235 -196 0
113 -235 -203 0
-113 235 -203 0
113 235 -204 0
-113 -235 -204 0
133 -235 -211 0
-133 235 -211 0
133 235 -212 0
-133 -235 -212 0
153 -235 -219 0
-153 235 -219 0
153 235 -220 0
-153 -235 -220 0
14 -163 0
14 -164 0
163 -163 0
164 -164 0
34 -171 0
34 -172 0
171 -171 0
172 -172 0
54 -179 0
54 -180 0
179 -179 0
180 -180 0
74 -187 0
74 -188 0
187 -187 0
188 -188 0
94 -195 0
94 -196 0
195 -195 0
196 -196 0
114 -203 0
114 -204 0
203 -203 0
204 -204 0
134 -211 0
134 -212 0
211 -211 0
212 -212 0
154 -219 0
154 -220 0
219 -219 0
220 -220 0
15 -236 -163 0
-15 236 -163 0
15 236 -164 0
-15 -236 -164 0
35 -236 -171 0
-35 236 -171 0
35 236 -172 0
-35 -236 -172 0
55 -236 -179 0
-55 236 -179 0
55 236 -180 0
-55 -236 -180 0
75 -236 -187 0
-75 236 -187 0
75 236 -188 0
-75 -236 -188 0
95 -236 -195 0
-95 236 -195 0
95 236 -196 0
-95 -236 -196 0
115 -236 -203 0
-115 236 -203 0
115 236 -204 0
-115 -236 -204 0
135 -236 -211 0
-135 236 -211 0
135 236 -212 0
-135 -236 -212 0
155 -236 -219 0
-155 236 -219 0
155 236 -220 0
-155 -236 -220 0
16 -237 -163 0
-16 237 -163 0
16 237 -164 0
-16 -237 -164 0
36 -237 -171 0
-36 237 -171 0
36 237 -172 0
-36 -237 -172 0
56 -237 -179 0
-56 237 -179 0
56 237 -180 0
-56 -237 -180 0
76 -237 -187 0
-76 237 -187 0
76 237 -188 0
-76 -237 -188 0
96 -237 -195 0
-96 237 -195 0
96 237 -196 0
-96 -237 -196 0
116 -237 -203 0
-116 237 -203 0
116 237 -204 0
-116 -237 -204 0
136 -237 -211 0
-136 237 -211 0
136 237 -212 0
-136 -237 -212 0
156 -237 -219 0
-156 237 -219 0
156 237 -220 0
-156 -237 -220 0
17 -163 0
17 -164 0
163 -163 0
164 -164 0
37 -171 0
37 -172 0
171 -171 0
172 -172 0
57 -179 0
57 -180 0
179 -179 0
180 -180 0
77 -187 0
77 -188 0
187 -187 0
188 -188 0
97 -195 0
97 -196 0
195 -195 0
196 -196 0
117 -203 0
117 -204 0
203 -203 0
204 -204 0
137 -211 0
137 -212 0
211 -211 0
212 -212 0
157 -219 0
157 -220 0
219 -219 0
220 -220 0
18 -238 -163 0
-18 238 -163 0
18 238 -164 0
-18 -238 -164 0
38 -238 -171 0
-38 238 -171 0
38 238 -172 0
-38 -238 -172 0
58 -238 -179 0
-58 238 -179 0
58 238 -180 0
-58 -238 -180 0
78 -238 -187 0
-78 238 -187 0
78 238 -188 0
-78 -238 -188 0
98 -238 -195 0
-98 238 -195 0
98 238 -196 0
-98 -238 -196 0
118 -238 -203 0
-118 238 -203 0
118 238 -204 0
-118 -238 -204 0
138 -238 -211 0
-138 238 -211 0
138 238 -212 0
-138 -238 -212 0
158 -238 -219 0
-158 238 -219 0
158 238 -220 0
-158 -238 -220 0
19 -163 0
19 -164 0
163 -163 0
164 -164 0
39 -171 0
39 -172 0
171 -171 0
172 -172 0
59 -179 0
59 -180 0
179 -179 0
180 -180 0
79 -187 0
79 -188 0
187 -187 0
188 -188 0
99 -195 0
99 -196 0
195 -195 0
196 -196 0
119 -203 0
119 -204 0
203 -203 0
204 -204 0
139 -211 0
139 -212 0
211 -211 0
212 -212 0
159 -219 0
159 -220 0
219 -219 0
220 -220 0
20 -239 -163 0
-20 239 -163 0
20 239 -164 0
-20 -239 -164 0
40 -239 -171 0
-40 239 -171 0
40 239 -172 0
-40 -239 -172 0
60 -239 -179 0
-60 239 -179 0
60 239 -180 0
-60 -239 -180 0
80 -239 -187 0
-80 239 -187 0
80 239 -188 0
-80 -239 -188 0
100 -239 -195 0
-100 239 -195 0
100 239 -196 0
-100 -239 -196 0
120 -239 -203 0
-120 239 -203 0
120 239 -204 0
-120 -239 -204 0
140 -239 -211 0
-140 239 -211 0
140 239 -212 0
-140 -239 -212 0
160 -239 -219 0
-160 239 -219 0
160 239 -220 0
-160 -239 -220 0
-307 163 0
307 -163 0
-308 164 0
307 -164 0
-307 -163 0
-308 -164 0
-315 163 307 0
315 -163 0
315 -307 0
-316 164 308 0
316 -164 0
316 -308 0
-315 -171 0
-316 -172 0
-323 171 315 0
323 -171 0
323 -315 0
-324 172 316 0
324 -172 0
324 -316 0
-323 -179 0
-324 -180 0
-331 179 323 0
331 -179 0
331 -323 0
-332 180 324 0
332 -180 0
332 -324 0
-331 -187 0
-332 -188 0
-339 187 331 0
339 -187 0
339 -331 0
-340 188 332 0
340 -188 0
340 -332 0
-339 -195 0
-340 -196 0
-347 195 339 0
347 -195 0
347 -339 0
-348 196 340 0
348 -196 0
348 -340 0
-347 -203 0
-348 -204 0
-355 203 347 0
355 -203 0
355 -347 0
-356 204 348 0
356 -204 0
356 -348 0
-355 -211 0
-356 -212 0
-363 211 355 0
363 -211 0
363 -355 0
-364 212 356 0
364 -212 0
364 -356 0
-363 -219 0
-364 -220 0
363 0
364 0
1 -165 0
1 -166 0
165 -165 0
166 -166 0
21 -173 0
21 -174 0
173 -173 0
174 -174 0
41 -181 0
41 -182 0
181 -181 0
182 -182 0
61 -189 0
61 -190 0
189 -189 0
190 -190 0
81 -197 0
81 -198 0
197 -197 0
198 -198 0
101 -205 0
101 -206 0
205 -205 0
206 -206 0
121 -213 0
121 -214 0
213 -213 0
214 -214 0
141 -221 0
141 -222 0
221 -221 0
222 -222 0
2 -165 0
2 -166 0
165 -165 0
166 -166 0
22 -173 0
22 -174 0
173 -173 0
174 -174 0
42 -181 0
42 -182 0
181 -181 0
182 -182 0
62 -189 0
62 -190 0
189 -189 0
190 -190 0
82 -197 0
82 -198 0
197 -197 0
198 -198 0
102 -205 0
102 -206 0
205 -205 0
206 -206 0
122 -213 0
122 -214 0
213 -213 0
214 -214 0
142 -221 0
142 -222 0
221 -221 0
222 -222 0
3 -240 -165 0
-3 240 -165 0
3 240 -166 0
-3 -240 -166 0
23 -240 -173 0
-23 240 -173 0
23 240 -174 0
-23 -240 -174 0
43 -240 -181 0
-43 240 -181 0
43 240 -182 0
-43 -240 -182 0
63 -240 -189 0
-63 240 -189 0
63 240 -190 0
-63 -240 -190 0
83 -240 -197 0
-83 240 -197 0
83 240 -198 0
-83 -240 -198 0
103 -240 -205 0
-103 240 -205 0
103 240 -206 0
-103 -240 -206 0
123 -240 -213 0
-123 240 -213 0
123 240 -214 0
-123 -240 -214 0
143 -240 -221 0
-143 240 -221 0
143 240 -222 0
-143 -240 -222 0
4 -165 0
4 -166 0
165 -165 0
166 -166 0
24 -173 0
24 -174 0
173 -173 0
174 -174 0
44 -181 0
44 -182 0
181 -181 0
182 -182 0
64 -189 0
64 -190 0
189 -189 0
190 -190 0
84 -197 0
84 -198 0
197 -197 0
198 -198 0
104 -205 0
104 -206 0
205 -205 0
206 -206 0
124 -213 0
124 -214 0
213 -213 0
214 -214 0
144 -221 0
144 -222 0
221 -221 0
222 -222 0
5 -165 0
5 -166 0
165 -165 0
166 -166 0
25 -173 0
25 -174 0
173 -173 0
174 -174 0
45 -181 0
45 -182 0
181 -181 0
182 -182 0
65 -189 0
65 -190 0
189 -189 0
190 -190 0
85 -197 0
85 -198 0
197 -197 0
198 -198 0
105 -205 0
105 -206 0
205 -205 0
206 -206 0
125 -213 0
125 -214 0
213 -213 0
214 -214 0
145 -221 0
145 -222 0
221 -221 0
222 -222 0
6 -165 0
6 -166 0
165 -165 0
166 -166 0
26 -173 0
26 -174 0
173 -173 0
174 -174 0
46 -181 0
46 -182 0
181 -181 0
182 -182 0
66 -189 0
66 -190 0
189 -189 0
190 -190 0
86 -197 0
86 -198 0
197 -197 0
198 -198 0
106 -205 0
106 -206 0
205 -205 0
206 -206 0
126 -213 0
126 -214 0
213 -213 0
214 -214 0
146 -221 0
146 -222 0
221 -221 0
222 -222 0
-7 -165 0
-7 -166 0
165 -165 0
166 -166 0
-27 -173 0
-27 -174 0
173 -173 0
174 -174 0
-47 -181 0
-47 -182 0
181 -181 0
182 -182 0
-67 -189 0
-67 -190 0
189 -189 0
190 -190 0
-87 -197 0
-87 -198 0
197 -197 0
198 -198 0
-107 -205 0
-107 -206 0
205 -205 0
206 -206 0
-127 -213 0
-127 -214 0
213 -213 0
214 -214 0
-147 -221 0
-147 -222 0
221 -221 0
222 -222 0
8 -165 0
8 -166 0
165 -165 0
166 -166 0
28 -173 0
28 -174 0
173 -173 0
174 -174 0
48 -181 0
48 -182 0
181 -181 0
182 -182 0
68 -189 0
68 -190 0
189 -189 0
190 -190 0
88 -197 0
88 -198 0
197 -197 0
198 -198 0
108 -205 0
108 -206 0
205 -205 0
206 -206 0
128 -213 0
128 -214 0
213 -213 0
214 -214 0
148 -221 0
148 -222 0
221 -221 0
222 -222 0
9 -165 0
9 -166 0
165 -165 0
166 -166 0
29 -173 0
29 -174 0
173 -173 0
174 -174 0
49 -181 0
49 -182 0
181 -181 0
182 -182 0
69 -189 0
69 -190 0
189 -189 0
190 -190 0
89 -197 0
89 -198 0
197 -197 0
198 -198 0
109 -205 0
109 -206 0
205 -205 0
206 -206 0
129 -213 0
129 -214 0
213 -213 0
214 -214 0
149 -221 0
149 -222 0
221 -221 0
222 -222 0
10 -165 0
10 -166 0
165 -165 0
166 -166 0
30 -173 0
30 -174 0
173 -173 0
174 -174 0
50 -181 0
50 -182 0
181 -181 0
182 -182 0
70 -189 0
70 -190 0
189 -189 0
190 -190 0
90 -197 0
90 -198 0
197 -197 0
198 -198 0
110 -205 0
110 -206 0
205 -205 0
206 -206 0
130 -213 0
130 -214 0
213 -213 0
214 -214 0
150 -221 0
150 -222 0
221 -221 0
222 -222 0
-11 -165 0
-11 -166 0
165 -165 0
166 -166 0
-31 -173 0
-31 -174 0
173 -173 0
174 -174 0
-51 -181 0
-51 -182 0
181 -181 0
182 -182 0
-71 -189 0
-71 -190 0
189 -189 0
190 -190 0
-91 -197 0
-91 -198 0
197 -197 0
198 -198 0
-111 -205 0
-111 -206 0
205 -205 0
206 -206 0
-131 -213 0
-131 -214 0
213 -213 0
214 -214 0
-151 -221 0
-151 -222 0
221 -221 0
222 -222 0
12 -165 0
12 -166 0
165 -165 0
166 -166 0
32 -173 0
32 -174 0
173 -173 0
174 -174 0
52 -181 0
52 -182 0
181 -181 0
182 -182 0
72 -189 0
72 -190 0
189 -189 0
190 -190 0
92 -197 0
92 -198 0
197 -197 0
198 -198 0
112 -205 0
112 -206 0
205 -205 0
206 -206 0
132 -213 0
132 -214 0
213 -213 0
214 -214 0
152 -221 0
152 -222 0
221 -221 0
222 -222 0
13 -165 0
13 -166 0
165 -165 0
166 -166 0
33 -173 0
33 -174 0
173 -173 0
174 -174 0
53 -181 0
53 -182 0
181 -181 0
182 -182 0
73 -189 0
73 -190 0
189 -189 0
190 -190 0
93 -197 0
93 -198 0
197 -197 0
198 -198 0
113 -205 0
113 -206 0
205 -205 0
206 -206 0
133 -213 0
133 -214 0
213 -213 0
214 -214 0
153 -221 0
153 -222 0
221 -221 0
222 -222 0
14 -165 0
14 -166 0
165 -165 0
166 -166 0
34 -173 0
34 -174 0
173 -173 0
174 -174 0
54 -181 0
54 -182 0
181 -181 0
182 -182 0
74 -189 0
74 -190 0
189 -189 0
190 -190 0
94 -197 0
94 -198 0
197 -197 0
198 -198 0
114 -205 0
114 -206 0
205 -205 0
206 -206 0
134 -213 0
134 -214 0
213 -213 0
214 -214 0
154 -221 0
154 -222 0
221 -221 0
222 -222 0
15 -241 -165 0
-15 241 -165 0
15 241 -166 0
-15 -241 -166 0
35 -241 -173 0
-35 241 -173 0
35 241 -174 0
-35 -241 -174 0
55 -241 -181 0
-55 241 -181 0
55 241 -182 0
-55 -241 -182 0
75 -241 -189 0
-75 241 -189 0
75 241 -190 0
-75 -241 -190 0
95 -241 -197 0
-95 241 -197 0
95 241 -198 0
-95 -241 -198 0
115 -241 -205 0
-115 241 -205 0
115 241 -206 0
-115 -241 -206 0
135 -241 -213 0
-135 241 -213 0
135 241 -214 0
-135 -241 -214 0
155 -241 -221 0
-155 241 -221 0
155 241 -222 0
-155 -241 -222 0
16 -165 0
16 -166 0
165 -165 0
166 -166 0
36 -173 0
36 -174 0
173 -173 0
174 -174 0
56 -181 0
56 -182 0
181 -181 0
182 -182 0
76 -189 0
76 -190 0
189 -189 0
190 -190 0
96 -197 0
96 -198 0
197 -197 0
198 -198 0
116 -205 0
116 -206 0
205 -205 0
206 -206 0
136 -213 0
136 -214 0
213 -213 0
214 -214 0
156 -221 0
156 -222 0
221 -221 0
222 -222 0
17 -165 0
17 -166 0
165 -165 0
166 -166 0
37 -173 0
37 -174 0
173 -173 0
174 -174 0
57 -181 0
57 -182 0
181 -181 0
182 -182 0
77 -189 0
77 -190 0
189 -189 0
190 -190 0
97 -197 0
97 -198 0
197 -197 0
198 -198 0
117 -205 0
117 -206 0
205 -205 0
206 -206 0
137 -213 0
137 -214 0
213 -213 0
214 -214 0
157 -221 0
157 -222 0
221 -221 0
222 -222 0
18 -242 -165 0
-18 242 -165 0
18 242 -166 0
-18 -242 -166 0
38 -242 -173 0
-38 242 -173 0
38 242 -174 0
-38 -242 -174 0
58 -242 -181 0
-58 242 -181 0
58 242 -182 0
-58 -242 -182 0
78 -242 -189 0
-78 242 -189 0
78 242 -190 0
-78 -242 -190 0
98 -242 -197 0
-98 242 -197 0
98 242 -198 0
-98 -242 -198 0
118 -242 -205 0
-118 242 -205 0
118 242 -206 0
-118 -242 -206 0
138 -242 -213 0
-138 242 -213 0
138 242 -214 0
-138 -242 -214 0
158 -242 -221 0
-158 242 -221 0
158 242 -222 0
-158 -242 -222 0
19 -165 0
19 -166 0
165 -165 0
166 -166 0
39 -173 0
39 -174 0
173 -173 0
174 -174 0
59 -181 0
59 -182 0
181 -181 0
182 -182 0
79 -189 0
79 -190 0
189 -189 0
190 -190 0
99 -197 0
99 -198 0
197 -197 0
198 -198 0
119 -205 0
119 -206 0
205 -205 0
206 -206 0
139 -213 0
139 -214 0
213 -213 0
214 -214 0
159 -221 0
159 -222 0
221 -221 0
222 -222 0
20 -243 -165 0
-20 243 -165 0
20 243 -166 0
-20 -243 -166 0
40 -243 -173 0
-40 243 -173 0
40 243 -174 0
-40 -243 -174 0
60 -243 -181 0
-60 243 -181 0
60 243 -182 0
-60 -243 -182 0
80 -243 -189 0
-80 243 -189 0
80 243 -190 0
-80 -243 -190 0
100 -243 -197 0
-100 243 -197 0
100 243 -198 0
-100 -243 -198 0
120 -243 -205 0
-120 243 -205 0
120 243 -206 0
-120 -243 -206 0
140 -243 -213 0
-140 243 -213 0
140 243 -214 0
-140 -243 -214 0
160 -243 -221 0
-160 243 -221 0
160 243 -222 0
-160 -243 -222 0
-309 165 0
309 -165 0
-310 166 0
309 -166 0
-309 -165 0
-310 -166 0
-317 165 309 0
317 -165 0
317 -309 0
-318 166 310 0
318 -166 0
318 -310 0
-317 -173 0
-318 -174 0
-325 173 317 0
325 -173 0
325 -317 0
-326 174 318 0
326 -174 0
326 -318 0
-325 -181 0
-326 -182 0
-333 181 325 0
333 -181 0
333 -325 0
-334 182 326 0
334 -182 0
334 -326 0
-333 -189 0
-334 -190 0
-341 189 333 0
341 -189 0
341 -333 0
-342 190 334 0
342 -190 0
342 -334 0
-341 -197 0
-342 -198 0
-349 197 341 0
349 -197 0
349 -341 0
-350 198 342 0
350 -198 0
350 -342 0
-349 -205 0
-350 -206 0
-357 205 349 0
357 -205 0
357 -349 0
-358 206 350 0
358 -206 0
358 -350 0
-357 -213 0
-358 -214 0
-365 213 357 0
365 -213 0
365 -357 0
-366 214 358 0
366 -214 0
366 -358 0
-365 -221 0
-366 -222 0
365 0
366 0
1 -244 -167 0
-1 244 -167 0
1 244 -168 0
-1 -244 -168 0
21 -244 -175 0
-21 244 -175 0
21 244 -176 0
-21 -244 -176 0
41 -244 -183 0
-41 244 -183 0
41 244 -184 0
-41 -244 -184 0
61 -244 -191 0
-61 244 -191 0
61 244 -192 0
-61 -244 -192 0
81 -244 -199 0
-81 244 -199 0
81 244 -200 0
-81 -244 -200 0
101 -244 -207 0
-101 244 -207 0
101 244 -208 0
-101 -244 -208 0
121 -244 -215 0
-121 244 -215 0
121 244 -216 0
-121 -244 -216 0
141 -244 -223 0
-141 244 -223 0
141 244 -224 0
-141 -244 -224 0
2 -167 0
2 -168 0
167 -167 0
168 -168 0
22 -175 0
22 -176 0
175 -175 0
176 -176 0
42 -183 0
42 -184 0
183 -183 0
184 -184 0
62 -191 0
62 -192 0
191 -191 0
192 -192 0
82 -199 0
82 -200 0
199 -199 0
200 -200 0
102 -207 0
102 -208 0
207 -207 0
208 -208 0
122 -215 0
122 -216 0
215 -215 0
216 -216 0
142 -223 0
142 -224 0
223 -223 0
224 -224 0
3 -245 -167 0
-3 245 -167 0
3 245 -168 0
-3 -245 -168 0
23 -245 -175 0
-23 245 -175 0
23 245 -176 0
-23 -245 -176 0
43 -245 -183 0
-43 245 -183 0
43 245 -184 0
-43 -245 -184 0
63 -245 -191 0
-63 245 -191 0
63 245 -192 0
-63 -245 -192 0
83 -245 -199 0
-83 245 -199 0
83 245 -200 0
-83 -245 -200 0
103 -245 -207 0
-103 245 -207 0
103 245 -208 0
-103 -245 -208 0
123 -245 -215 0
-123 245 -215 0
123 245 -216 0
-123 -245 -216 0
143 -245 -223 0
-143 245 -223 0
143 245 -224 0
-143 -245 -224 0
4 -167 0
4 -168 0
167 -167 0
168 -168 0
24 -175 0
24 -176 0
175 -175 0
176 -176 0
44 -183 0
44 -184 0
183 -183 0
184 -184 0
64 -191 0
64 -192 0
191 -191 0
192 -192 0
84 -199 0
84 -200 0
199 -199 0
200 -200 0
104 -207 0
104 -208 0
207 -207 0
208 -208 0
124 -215 0
124 -216 0
215 -215 0
216 -216 0
144 -223 0
144 -224 0
223 -223 0
224 -224 0
5 -246 -167 0
-5 246 -167 0
5 246 -168 0
-5 -246 -168 0
25 -246 -175 0
-25 246 -175 0
25 246 -176 0
-25 -246 -176 0
45 -246 -183 0
-45 246 -183 0
45 246 -184 0
-45 -246 -184 0
65 -246 -191 0
-65 246 -191 0
65 246 -192 0
-65 -246 -192 0
85 -246 -199 0
-85 246 -199 0
85 246 -200 0
-85 -246 -200 0
105 -246 -207 0
-105 246 -207 0
105 246 -208 0
-105 -246 -208 0
125 -246 -215 0
-125 246 -215 0
125 246 -216 0
-125 -246 -216 0
145 -246 -223 0
-145 246 -223 0
145 246 -224 0
-145 -246 -224 0
6 -167 0
6 -168 0
167 -167 0
168 -168 0
26 -175 0
26 -176 0
175 -175 0
176 -176 0
46 -183 0
46 -184 0
183 -183 0
184 -184 0
66 -191 0
66 -192 0
191 -191 0
192 -192 0
86 -199 0
86 -200 0
199 -199 0
200 -200 0
106 -207 0
106 -208 0
207 -207 0
208 -208 0
126 -215 0
126 -216 0
215 -215 0
216 -216 0
146 -223 0
146 -224 0
223 -223 0
224 -224 0
7 -247 -167 0
-7 247 -167 0
7 247 -168 0
-7 -247 -168 0
27 -247 -175 0
-27 247 -175 0
27 247 -176 0
-27 -247 -176 0
47 -247 -183 0
-47 247 -183 0
47 247 -184 0
-47 -247 -184 0
67 -247 -191 0
-67 247 -191 0
67 247 -192 0
-67 -247 -192 0
87 -247 -199 0
-87 247 -199 0
87 247 -200 0
-87 -247 -200 0
107 -247 -207 0
-107 247 -207 0
107 247 -208 0
-107 -247 -208 0
127 -247 -215 0
-127 247 -215 0
127 247 -216 0
-127 -247 -216 0
147 -247 -223 0
-147 247 -223 0
147 247 -224 0
-147 -247 -224 0
8 -248 -167 0
-8 248 -167 0
8 248 -168 0
-8 -248 -168 0
28 -248 -175 0
-28 248 -175 0
28 248 -176 0
-28 -248 -176 0
48 -248 -183 0
-48 248 -183 0
48 248 -184 0
-48 -248 -184 0
68 -248 -191 0
-68 248 -191 0
68 248 -192 0
-68 -248 -192 0
88 -248 -199 0
-88 248 -199 0
88 248 -200 0
-88 -248 -200 0
108 -248 -207 0
-108 248 -207 0
108 248 -208 0
-108 -248 -208 0
128 -248 -215 0
-128 248 -215 0
128 248 -216 0
-128 -248 -216 0
148 -248 -223 0
-148 248 -223 0
148 248 -224 0
-148 -248 -224 0
9 -167 0
9 -168 0
167 -167 0
168 -168 0
29 -175 0
29 -176 0
175 -175 0
176 -176 0
49 -183 0
49 -184 0
183 -183 0
184 -184 0
69 -191 0
69 -192 0
191 -191 0
192 -192 0
89 -199 0
89 -200 0
199 -199 0
200 -200 0
109 -207 0
109 -208 0
207 -207 0
208 -208 0
129 -215 0
129 -216 0
215 -215 0
216 -216 0
149 -223 0
149 -224 0
223 -223 0
224 -224 0
10 -167 0
10 -168 0
167 -167 0
168 -168 0
30 -175 0
30 -176 0
175 -175 0
176 -176 0
50 -183 0
50 -184 0
183 -183 0
184 -184 0
70 -191 0
70 -192 0
191 -191 0
192 -192 0
90 -199 0
90 -200 0
199 -199 0
200 -200 0
110 -207 0
110 -208 0
207 -207 0
208 -208 0
130 -215 0
130 -216 0
215 -215 0
216 -216 0
150 -223 0
150 -224 0
223 -223 0
224 -224 0
11 -249 -167 0
-11 249 -167 0
11 249 -168 0
-11 -249 -168 0
31 -249 -175 0
-31 249 -175 0
31 249 -176 0
-31 -249 -176 0
51 -249 -183 0
-51 249 -183 0
51 249 -184 0
-51 -249 -184 0
71 -249 -191 0
-71 249 -191 0
71 249 -192 0
-71 -249 -192 0
91 -249 -199 0
-91 249 -199 0
91 249 -200 0
-91 -249 -200 0
111 -249 -207 0
-111 249 -207 0
111 249 -208 0
-111 -249 -208 0
131 -249 -215 0
-131 249 -215 0
131 249 -216 0
-131 -249 -216 0
151 -249 -223 0
-151 249 -223 0
151 249 -224 0
-151 -249 -224 0
12 -167 0
12 -168 0
167 -167 0
168 -168 0
32 -175 0
32 -176 0
175 -175 0
176 -176 0
52 -183 0
52 -184 0
183 -183 0
184 -184 0
72 -191 0
72 -192 0
191 -191 0
192 -192 0
92 -199 0
92 -200 0
199 -199 0
200 -200 0
112 -207 0
112 -208 0
207 -207 0
208 -208 0
132 -215 0
132 -216 0
215 -215 0
216 -216 0
152 -223 0
152 -224 0
223 -223 0
224 -224 0
13 -250 -167 0
-13 250 -167 0
13 250 -168 0
-13 -250 -168 0
33 -250 -175 0
-33 250 -175 0
33 250 -176 0
-33 -250 -176 0
53 -250 -183 0
-53 250 -183 0
53 250 -184 0
-53 -250 -184 0
73 -250 -191 0
-73 250 -191 0
73 250 -192 0
-73 -250 -192 0
93 -250 -199 0
-93 250 -199 0
93 250 -200 0
-93 -250 -200 0
113 -250 -207 0
-113 250 -207 0
113 250 -208 0
-113 -250 -208 0
133 -250 -215 0
-133 250 -215 0
133 250 -216 0
-133 -250 -216 0
153 -250 -223 0
-153 250 -223 0
153 250 -224 0
-153 -250 -224 0
14 -167 0
14 -168 0
167 -167 0
168 -168 0
34 -175 0
34 -176 0
175 -175 0
176 -176 0
54 -183 0
54 -184 0
183 -183 0
184 -184 0
74 -191 0
74 -192 0
191 -191 0
192 -192 0
94 -199 0
94 -200 0
199 -199 0
200 -200 0
114 -207 0
114 -208 0
207 -207 0
208 -208 0
134 -215 0
134 -216 0
215 -215 0
216 -216 0
154 -223 0
154 -224 0
223 -223 0
224 -224 0
15 -251 -167 0
-15 251 -167 0
15 251 -168 0
-15 -251 -168 0
35 -251 -175 0
-35 251 -175 0
35 251 -176 0
-35 -251 -176 0
55 -251 -183 0
-55 251 -183 0
55 251 -184 0
-55 -251 -184 0
75 -251 -191 0
-75 251 -191 0
75 251 -192 0
-75 -251 -192 0
95 -251 -199 0
-95 251 -199 0
95 251 -200 0
-95 -251 -200 0
115 -251 -207 0
-115 251 -207 0
115 251 -208 0
-115 -251 -208 0
135 -251 -215 0
-135 251 -215 0
135 251 -216 0
-135 -251 -216 0
155 -251 -223 0
-155 251 -223 0
155 251 -224 0
-155 -251 -224 0
16 -167 0
16 -168 0
167 -167 0
168 -168 0
36 -175 0
36 -176 0
175 -175 0
176 -176 0
56 -183 0
56 -184 0
183 -183 0
184 -184 0
76 -191 0
76 -192 0
191 -191 0
192 -192 0
96 -199 0
96 -200 0
199 -199 0
200 -200 0
116 -207 0
116 -208 0
207 -207 0
208 -208 0
136 -215 0
136 -216 0
215 -215 0
216 -216 0
156 -223 0
156 -224 0
223 -223 0
224 -224 0
17 -167 0
17 -168 0
167 -167 0
168 -168 0
37 -175 0
37 -176 0
175 -175 0
176 -176 0
57 -183 0
57 -184 0
183 -183 0
184 -184 0
77 -191 0
77 -192 0
191 -191 0
192 -192 0
97 -199 0
97 -200 0
199 -199 0
200 -200 0
117 -207 0
117 -208 0
207 -207 0
208 -208 0
137 -215 0
137 -216 0
215 -215 0
216 -216 0
157 -223 0
157 -224 0
223 -223 0
224 -224 0
-18 -167 0
-18 -168 0
167 -167 0
168 -168 0
-38 -175 0
-38 -176 0
175 -175 0
176 -176 0
-58 -183 0
-58 -184 0
183 -183 0
184 -184 0
-78 -191 0
-78 -192 0
191 -191 0
192 -192 0
-98 -199 0
-98 -200 0
199 -199 0
200 -200 0
-118 -207 0
-118 -208 0
207 -207 0
208 -208 0
-138 -215 0
-138 -216 0
215 -215 0
216 -216 0
-158 -223 0
-158 -224 0
223 -223 0
224 -224 0
19 -167 0
19 -168 0
167 -167 0
168 -168 0
39 -175 0
39 -176 0
175 -175 0
176 -176 0
59 -183 0
59 -184 0
183 -183 0
184 -184 0
79 -191 0
79 -192 0
191 -191 0
192 -192 0
99 -199 0
99 -200 0
199 -199 0
200 -200 0
119 -207 0
119 -208 0
207 -207 0
208 -208 0
139 -215 0
139 -216 0
215 -215 0
216 -216 0
159 -223 0
159 -224 0
223 -223 0
224 -224 0
20 -167 0
20 -168 0
167 -167 0
168 -168 0
40 -175 0
40 -176 0
175 -175 0
176 -176 0
60 -183 0
60 -184 0
183 -183 0
184 -184 0
80 -191 0
80 -192 0
191 -191 0
192 -192 0
100 -199 0
100 -200 0
199 -199 0
200 -200 0
120 -207 0
120 -208 0
207 -207 0
208 -208 0
140 -215 0
140 -216 0
215 -215 0
216 -216 0
160 -223 0
160 -224 0
223 -223 0
224 -224 0
-311 167 0
311 -167 0
-312 168 0
311 -168 0
-311 -167 0
-312 -168 0
-319 167 311 0
319 -167 0
319 -311 0
-320 168 312 0
320 -168 0
320 -312 0
-319 -175 0
-320 -176 0
-327 175 319 0
327 -175 0
327 -319 0
-328 176 320 0
328 -176 0
328 -320 0
-327 -183 0
-328 -184 0
-335 183 327 0
335 -183 0
335 -327 0
-336 184 328 0
336 -184 0
336 -328 0
-335 -191 0
-336 -192 0
-343 191 335 0
343 -191 0
343 -335 0
-344 192 336 0
344 -192 0
344 -336 0
-343 -199 0
-344 -200 0
-351 199 343 0
351 -199 0
351 -343 0
-352 200 344 0
352 -200 0
352 -344 0
-351 -207 0
-352 -208 0
-359 207 351 0
359 -207 0
359 -351 0
-360 208 352 0
360 -208 0
360 -352 0
-359 -215 0
-360 -216 0
-367 215 359 0
367 -215 0
367 -359 0
-368 216 360 0
368 -216 0
368 -360 0
-367 -223 0
-368 -224 0
367 0
368 0
